(set-logic HORN)
(declare-fun state (Int Int (Array Int Int) Int Int Bool Bool Bool Bool Int Int) Bool)
(assert (forall ((|A_16| Int) (|B_15| Int) (|C_15| (Array Int Int)) (|D_15| Int) (|.y.6| Int) (|.loc.7| Bool) (|.loc.8| Bool) (|.loc.9| Bool) (|.loc.10| Bool) (|H_16| Int) (|H_17| Int) (|I_15| Int) (|.x.33| Int) (|.loc.12| Bool) (|.y.11| Int) (|.x.32| (Array Int Int)) (|.loc.13| Bool) (|.loc.15| Bool) (|.loc.14| Bool) (|.x.31| Int) (|.xtv.1| Int) (|.xpv.1| Int)) (=> (and (and (and (not .loc.7) (not .loc.8)) (not .loc.9)) (not .loc.10)) (state |A_16| |B_15| |C_15| |D_15| |.y.6| |.loc.7| |.loc.8| |.loc.9| |.loc.10| |H_16| |H_17|))))
(assert (forall ((|A_16| Int) (|B_15| Int) (|C_15| (Array Int Int)) (|D_15| Int) (|.y.6| Int) (|.loc.7| Bool) (|.loc.8| Bool) (|.loc.9| Bool) (|.loc.10| Bool) (|H_16| Int) (|H_17| Int) (|I_15| Int) (|.x.33| Int) (|.loc.12| Bool) (|.y.11| Int) (|.x.32| (Array Int Int)) (|.loc.13| Bool) (|.loc.15| Bool) (|.loc.14| Bool) (|.x.31| Int) (|.xtv.1| Int) (|.xpv.1| Int)) (=> (and (state |A_16| |B_15| |C_15| |D_15| |.y.6| |.loc.7| |.loc.8| |.loc.9| |.loc.10| |H_16| |H_17|) (let ((.def_21 (not .loc.7))) (let ((.def_22 (not .loc.8))) (let ((.def_24 (not .loc.9))) (let ((.def_26 (not .loc.10))) (let ((.def_33 (<= D_15 B_15))) (let ((.def_54 (<= A_16 0))) (let ((.def_55 (not .def_54))) (let ((.def_61 (or .def_54 (not (<= H_16 0))))) (let ((.def_73 (not .loc.12))) (let ((.def_77 (= .y.11 0))) (let ((.def_79 (= D_15 I_15))) (let ((.def_83 (= C_15 .x.32))) (let ((.def_87 (not .def_33))) (let ((.def_99 (= (+ B_15 (* (- 1) .y.11)) (- 1)))) (let ((.def_103 (= (+ A_16 (+ B_15 (* (- 1) H_16))) 0))) (let ((.def_107 (not .loc.13))) (let ((.def_111 (not .loc.14))) (let ((.def_114 (and .def_33 .def_83))) (let ((.def_115 (and .loc.8 .def_114))) (let ((.def_124 (not .loc.15))) (let ((.def_130 (and .loc.7 .def_87))) (let ((.def_131 (and .loc.8 .def_130))) (let ((.def_145 (and .loc.7 .def_114))) (let ((.def_159 (and .loc.8 .def_87))) (let ((.def_284 (= A_16 .x.31))) (or (or (and (or (or (or (or (or (or (or (or (or (or (or (or (and (or (and (or (and (or (and .def_21 (and (= I_15 0) (and (= D_15 .x.33) .def_33))) (and (= .y.6 .x.33) (and (and (= (+ D_15 (* (- 1) I_15)) (- 1)) (and (= (+ A_16 (+ D_15 (* (- 1) H_16))) 0) (and (and (not (<= .y.6 D_15)) (and .loc.7 (= (select C_15 H_16) 49))) .def_55))) .def_61))) (and (and .def_24 (and .loc.10 .def_22)) .loc.12)) (and (and (and .def_26 (and (and .loc.9 (and .loc.8 (and .loc.7 .def_33))) .def_73)) .def_77) .def_79)) .def_83) (and (and (and (= .x.32 (store C_15 H_16 49)) (and .def_79 (and .def_73 (and .def_61 (and .def_55 (and .def_24 (and .def_22 (and .def_21 (and .loc.10 .def_87))))))))) .def_99) .def_103)) (and (and .def_107 .loc.15) .def_111)) (and (and .def_79 (and .def_77 (and .def_26 (and .loc.14 (and .loc.13 (and .loc.12 (and .def_21 (and .loc.9 .def_115)))))))) .def_124)) (and (= .x.32 (store C_15 H_16 48)) (and .def_124 (and .def_103 (and .def_99 (and .def_79 (and .def_26 (and .def_61 (and .def_55 (and .loc.14 (and .loc.13 (and .loc.12 (and .loc.9 .def_131))))))))))))) (and .def_124 (and .def_79 (and .def_77 (and .def_26 (and .def_73 (and .loc.14 (and .loc.13 (and .def_22 (and .loc.9 .def_145)))))))))) (and (= .x.32 (store C_15 H_16 47)) (and .def_124 (and .def_103 (and .def_99 (and .def_79 (and .def_26 (and .def_73 (and .def_61 (and .def_55 (and .loc.14 (and .loc.13 (and .def_21 (and .loc.9 .def_159)))))))))))))) (and .def_124 (and .def_79 (and .def_77 (and .def_26 (and .def_107 (and .loc.14 (and .loc.12 (and .def_22 (and .def_21 (and .loc.9 .def_114))))))))))) (and (= .x.32 (store C_15 H_16 46)) (and .def_124 (and .def_103 (and .def_99 (and .def_79 (and .def_26 (and .def_61 (and .def_55 (and .def_107 (and .loc.14 (and .loc.12 (and .def_22 (and .loc.9 .def_130)))))))))))))) (and .def_124 (and .def_79 (and .def_77 (and .def_26 (and .def_73 (and .def_107 (and .loc.14 (and .def_24 (and .loc.8 .def_145)))))))))) (and (= .x.32 (store C_15 H_16 45)) (and .def_124 (and .def_103 (and .def_99 (and .def_79 (and .def_26 (and .def_73 (and .def_61 (and .def_55 (and .def_107 (and .loc.14 (and .def_22 (and .def_21 (and .loc.9 .def_87))))))))))))))) (and .def_124 (and .def_79 (and .def_77 (and .def_26 (and .def_111 (and .loc.13 (and .loc.12 (and .def_24 (and .def_21 .def_115)))))))))) (and (= .x.32 (store C_15 H_16 44)) (and .def_124 (and .def_103 (and .def_99 (and .def_79 (and .def_26 (and .def_61 (and .def_55 (and .def_111 (and .loc.13 (and .loc.12 (and .def_24 .def_131))))))))))))) (and .def_124 (and .def_79 (and .def_77 (and .def_26 (and .def_73 (and .def_111 (and .loc.13 (and .def_24 (and .def_22 .def_145)))))))))) (and (= .x.32 (store C_15 H_16 43)) (and .def_124 (and .def_103 (and .def_99 (and .def_79 (and .def_26 (and .def_73 (and .def_61 (and .def_55 (and .def_111 (and .loc.13 (and .def_24 (and .def_21 .def_159)))))))))))))) .def_284) (and (not (<= .x.31 0)) (and (not (<= I_15 0)) (and .def_124 (and .def_77 (and .def_26 (and .def_111 (and .def_107 (and (and (and .def_21 .def_22) .def_24) .loc.12))))))))) (and (= .x.32 (store C_15 H_16 42)) (and .def_124 (and .def_103 (and .def_99 (and .def_79 (and .def_26 (and .def_61 (and .def_55 (and .def_111 (and .def_107 (and .loc.12 (and .def_24 (and .def_22 (and .loc.7 (and .def_87 .def_284)))))))))))))))))))))))))))))))))))))))))) (state |.x.31| |.y.11| |.x.32| |I_15| |.x.33| |.loc.12| |.loc.13| |.loc.14| |.loc.15| |.xtv.1| |.xpv.1|))))
(assert (forall ((|A_16| Int) (|B_15| Int) (|C_15| (Array Int Int)) (|D_15| Int) (|.y.6| Int) (|.loc.7| Bool) (|.loc.8| Bool) (|.loc.9| Bool) (|.loc.10| Bool) (|H_16| Int) (|H_17| Int) (|I_15| Int) (|.x.33| Int) (|.loc.12| Bool) (|.y.11| Int) (|.x.32| (Array Int Int)) (|.loc.13| Bool) (|.loc.15| Bool) (|.loc.14| Bool) (|.x.31| Int) (|.xtv.1| Int) (|.xpv.1| Int)) (=> (state |A_16| |B_15| |C_15| |D_15| |.y.6| |.loc.7| |.loc.8| |.loc.9| |.loc.10| |H_16| |H_17|) (let ((.def_54 (<= A_16 0))) (not (and (and .loc.10 (and (not .loc.9) (and .loc.7 (not .loc.8)))) (and (and (not (= (select C_15 H_17) 49)) (and (and (not (<= .y.6 D_15)) (not .def_54)) (= (+ A_16 (+ D_15 (* (- 1) H_17))) 0))) (or .def_54 (not (<= H_17 0))))))))))
(check-sat)
